% Logging successfully configured
%%%mzn-stat: initTime=0.00904119
%%%mzn-stat: objective=1085
%%%mzn-stat: nodes=43585
%%%mzn-stat: restarts=0
%%%mzn-stat: peakDepth=447
%%%mzn-stat: solveTime=21.408510952
%%%mzn-stat: variables=886
%%%mzn-stat: propagators=622
%%%mzn-stat: failures=42996
%%%mzn-stat: propagations=1010229
%%%mzn-stat: nogoods=42996
%%%mzn-stat: numAtomicConstraintsPropagated=0
%%%mzn-stat: circuitNumber1PropagationsTotal=191229
%%%mzn-stat: circuitNumber1CircuitConflicts=38881
%%%mzn-stat: circuitNumber1AlldiffConflicts=39
%%%mzn-stat: circuitNumber1TotalFixedEdgesAtConflict=1807390
%%%mzn-stat: circuitNumber1NumberOfConflicts=38920
%%%mzn-stat: circuitNumber1GacPrunings=208244
%%%mzn-stat: circuitNumber1PropagationsThatGacPruned=94538
%%%mzn-stat: circuitNumber1TotalPruningHallSetSize=367320
%%%mzn-stat: circuitNumber1NumberOfPruningExplanations=208244
%%%mzn-stat: circuitNumber1MaxPruningHallSetSize=27
%%%mzn-stat: circuitNumber1TotalSccSizeAtPruning=234346
%%%mzn-stat: circuitNumber1NumberOfSccPruningCalls=94538
%%%mzn-stat: circuitNumber1TotalVarsInvolvedInPruning=185420
%%%mzn-stat: circuitNumber1MaxValuesPrunedFromSingleVar=6
%%%mzn-stat: circuitNumber1HallCircuitChecks=326742
%%%mzn-stat: circuitNumber1HallCircuitPrunings=15962
%%%mzn-stat: circuitNumber1CircuitPreventPrunings=78127
%%%mzn-stat: AverageConflictSize=40.0700065122337
%%%mzn-stat: NumUnitNogoodsLearned=0
%%%mzn-stat: AverageLearnedNogoodLength=35.00686110335845
%%%mzn-stat: AverageBacktrackAmount=0
%%%mzn-stat: AverageLbd=30.29872546283375
%%%mzn-stat: 2AutonomousSearchNumBackupCalled=410
%%%mzn-stat: 2AutonomousSearchNumPredicatesRemoved=0
%%%mzn-stat: 2AutonomousSearchNumCalls=411
%%%mzn-stat: 2AutonomousSearchNumPredicatesAdded=1293
%%%mzn-stat: 2AutonomousSearchAverageSizeOfHeap=3.145985401459854
%%%mzn-stat: 2AutonomousSearchNumAssignedPredicatesEncountered=1293
%%%mzn-stat-end
maxleg = 1085;
succ = array1d(1..50,[2, 5, 8, 9, 3, 1, 11, 12, 14, 20, 16, 4, 6, 7, 13, 21, 23, 34, 24, 29, 10, 36, 15, 35, 27, 17, 19, 26, 44, 31, 32, 25, 30, 38, 42, 37, 40, 22, 47, 50, 46, 43, 48, 41, 28, 49, 33, 18, 39, 45]);
% time elapsed: 21.67 s
----------
%%%mzn-stat: initTime=0.00904119
%%%mzn-stat: objective=769
%%%mzn-stat: nodes=45603
%%%mzn-stat: restarts=0
%%%mzn-stat: peakDepth=457
%%%mzn-stat: solveTime=22.101534359
%%%mzn-stat: variables=886
%%%mzn-stat: propagators=622
%%%mzn-stat: failures=44239
%%%mzn-stat: propagations=1046369
%%%mzn-stat: nogoods=44239
%%%mzn-stat: numAtomicConstraintsPropagated=0
%%%mzn-stat: circuitNumber1PropagationsTotal=198115
%%%mzn-stat: circuitNumber1CircuitConflicts=39872
%%%mzn-stat: circuitNumber1AlldiffConflicts=40
%%%mzn-stat: circuitNumber1TotalFixedEdgesAtConflict=1852641
%%%mzn-stat: circuitNumber1NumberOfConflicts=39912
%%%mzn-stat: circuitNumber1GacPrunings=219046
%%%mzn-stat: circuitNumber1PropagationsThatGacPruned=98364
%%%mzn-stat: circuitNumber1TotalPruningHallSetSize=388525
%%%mzn-stat: circuitNumber1NumberOfPruningExplanations=219046
%%%mzn-stat: circuitNumber1MaxPruningHallSetSize=27
%%%mzn-stat: circuitNumber1TotalSccSizeAtPruning=245103
%%%mzn-stat: circuitNumber1NumberOfSccPruningCalls=98364
%%%mzn-stat: circuitNumber1TotalVarsInvolvedInPruning=194415
%%%mzn-stat: circuitNumber1MaxValuesPrunedFromSingleVar=6
%%%mzn-stat: circuitNumber1HallCircuitChecks=338213
%%%mzn-stat: circuitNumber1HallCircuitPrunings=16815
%%%mzn-stat: circuitNumber1CircuitPreventPrunings=81632
%%%mzn-stat: AverageConflictSize=39.61841361694432
%%%mzn-stat: NumUnitNogoodsLearned=0
%%%mzn-stat: AverageLearnedNogoodLength=34.74309997965596
%%%mzn-stat: AverageBacktrackAmount=0
%%%mzn-stat: AverageLbd=30.11320328217184
%%%mzn-stat: 2AutonomousSearchNumBackupCalled=831
%%%mzn-stat: 2AutonomousSearchNumPredicatesRemoved=0
%%%mzn-stat: 2AutonomousSearchNumCalls=833
%%%mzn-stat: 2AutonomousSearchNumPredicatesAdded=2423
%%%mzn-stat: 2AutonomousSearchAverageSizeOfHeap=3.369747899159664
%%%mzn-stat: 2AutonomousSearchNumAssignedPredicatesEncountered=2807
%%%mzn-stat-end
maxleg = 769;
succ = array1d(1..50,[2, 6, 5, 9, 18, 13, 11, 3, 8, 1, 16, 4, 15, 7, 23, 21, 26, 34, 12, 10, 20, 24, 17, 35, 27, 30, 19, 36, 39, 33, 32, 25, 49, 38, 42, 22, 40, 37, 47, 50, 44, 43, 48, 29, 28, 41, 31, 14, 46, 45]);
% time elapsed: 22.34 s
----------
%%%mzn-stat: initTime=0.00904119
%%%mzn-stat: objective=392
%%%mzn-stat: nodes=46043
%%%mzn-stat: restarts=0
%%%mzn-stat: peakDepth=457
%%%mzn-stat: solveTime=22.108565653
%%%mzn-stat: variables=886
%%%mzn-stat: propagators=622
%%%mzn-stat: failures=44240
%%%mzn-stat: propagations=1047510
%%%mzn-stat: nogoods=44240
%%%mzn-stat: numAtomicConstraintsPropagated=0
%%%mzn-stat: circuitNumber1PropagationsTotal=198205
%%%mzn-stat: circuitNumber1CircuitConflicts=39872
%%%mzn-stat: circuitNumber1AlldiffConflicts=40
%%%mzn-stat: circuitNumber1TotalFixedEdgesAtConflict=1852641
%%%mzn-stat: circuitNumber1NumberOfConflicts=39912
%%%mzn-stat: circuitNumber1GacPrunings=219292
%%%mzn-stat: circuitNumber1PropagationsThatGacPruned=98409
%%%mzn-stat: circuitNumber1TotalPruningHallSetSize=389075
%%%mzn-stat: circuitNumber1NumberOfPruningExplanations=219292
%%%mzn-stat: circuitNumber1MaxPruningHallSetSize=27
%%%mzn-stat: circuitNumber1TotalSccSizeAtPruning=245312
%%%mzn-stat: circuitNumber1NumberOfSccPruningCalls=98409
%%%mzn-stat: circuitNumber1TotalVarsInvolvedInPruning=194639
%%%mzn-stat: circuitNumber1MaxValuesPrunedFromSingleVar=6
%%%mzn-stat: circuitNumber1HallCircuitChecks=338328
%%%mzn-stat: circuitNumber1HallCircuitPrunings=16822
%%%mzn-stat: circuitNumber1CircuitPreventPrunings=81663
%%%mzn-stat: AverageConflictSize=39.617608499095844
%%%mzn-stat: NumUnitNogoodsLearned=0
%%%mzn-stat: AverageLearnedNogoodLength=34.74249547920434
%%%mzn-stat: AverageBacktrackAmount=0
%%%mzn-stat: AverageLbd=30.112680831826403
%%%mzn-stat: 2AutonomousSearchNumBackupCalled=1231
%%%mzn-stat: 2AutonomousSearchNumPredicatesRemoved=0
%%%mzn-stat: 2AutonomousSearchNumCalls=1234
%%%mzn-stat: 2AutonomousSearchNumPredicatesAdded=2498
%%%mzn-stat: 2AutonomousSearchAverageSizeOfHeap=3.5024311183144246
%%%mzn-stat: 2AutonomousSearchNumAssignedPredicatesEncountered=4322
%%%mzn-stat-end
maxleg = 392;
succ = array1d(1..50,[2, 6, 5, 9, 18, 13, 11, 3, 8, 20, 16, 4, 15, 7, 23, 21, 1, 34, 12, 29, 10, 24, 26, 19, 27, 28, 17, 45, 44, 31, 32, 25, 30, 42, 43, 22, 36, 37, 47, 38, 46, 35, 48, 41, 50, 49, 33, 14, 39, 40]);
% time elapsed: 22.35 s
----------
%%%mzn-stat: initTime=0.00904119
%%%mzn-stat: objective=375
%%%mzn-stat: nodes=46458
%%%mzn-stat: restarts=0
%%%mzn-stat: peakDepth=457
%%%mzn-stat: solveTime=22.114182192
%%%mzn-stat: variables=886
%%%mzn-stat: propagators=622
%%%mzn-stat: failures=44241
%%%mzn-stat: propagations=1048583
%%%mzn-stat: nogoods=44241
%%%mzn-stat: numAtomicConstraintsPropagated=0
%%%mzn-stat: circuitNumber1PropagationsTotal=198284
%%%mzn-stat: circuitNumber1CircuitConflicts=39873
%%%mzn-stat: circuitNumber1AlldiffConflicts=40
%%%mzn-stat: circuitNumber1TotalFixedEdgesAtConflict=1852664
%%%mzn-stat: circuitNumber1NumberOfConflicts=39913
%%%mzn-stat: circuitNumber1GacPrunings=219508
%%%mzn-stat: circuitNumber1PropagationsThatGacPruned=98448
%%%mzn-stat: circuitNumber1TotalPruningHallSetSize=389826
%%%mzn-stat: circuitNumber1NumberOfPruningExplanations=219508
%%%mzn-stat: circuitNumber1MaxPruningHallSetSize=29
%%%mzn-stat: circuitNumber1TotalSccSizeAtPruning=245520
%%%mzn-stat: circuitNumber1NumberOfSccPruningCalls=98448
%%%mzn-stat: circuitNumber1TotalVarsInvolvedInPruning=194825
%%%mzn-stat: circuitNumber1MaxValuesPrunedFromSingleVar=6
%%%mzn-stat: circuitNumber1HallCircuitChecks=338433
%%%mzn-stat: circuitNumber1HallCircuitPrunings=16828
%%%mzn-stat: circuitNumber1CircuitPreventPrunings=81690
%%%mzn-stat: AverageConflictSize=39.61675821070952
%%%mzn-stat: NumUnitNogoodsLearned=0
%%%mzn-stat: AverageLearnedNogoodLength=34.74281774824258
%%%mzn-stat: AverageBacktrackAmount=0
%%%mzn-stat: AverageLbd=30.112361836305688
%%%mzn-stat: 2AutonomousSearchNumBackupCalled=1611
%%%mzn-stat: 2AutonomousSearchNumPredicatesRemoved=0
%%%mzn-stat: 2AutonomousSearchNumCalls=1615
%%%mzn-stat: 2AutonomousSearchNumPredicatesAdded=2626
%%%mzn-stat: 2AutonomousSearchAverageSizeOfHeap=3.6408668730650153
%%%mzn-stat: 2AutonomousSearchNumAssignedPredicatesEncountered=5880
%%%mzn-stat-end
maxleg = 375;
succ = array1d(1..50,[2, 6, 5, 9, 18, 13, 11, 3, 8, 20, 16, 4, 15, 7, 23, 21, 1, 34, 12, 29, 41, 24, 26, 19, 27, 28, 17, 45, 39, 31, 32, 25, 47, 42, 43, 22, 36, 37, 46, 38, 44, 35, 48, 10, 50, 49, 30, 14, 33, 40]);
% time elapsed: 22.36 s
----------
%%%mzn-stat: initTime=0.00904119
%%%mzn-stat: objective=364
%%%mzn-stat: nodes=46860
%%%mzn-stat: restarts=0
%%%mzn-stat: peakDepth=457
%%%mzn-stat: solveTime=22.119106404
%%%mzn-stat: variables=886
%%%mzn-stat: propagators=622
%%%mzn-stat: failures=44241
%%%mzn-stat: propagations=1049653
%%%mzn-stat: nogoods=44241
%%%mzn-stat: numAtomicConstraintsPropagated=0
%%%mzn-stat: circuitNumber1PropagationsTotal=198357
%%%mzn-stat: circuitNumber1CircuitConflicts=39873
%%%mzn-stat: circuitNumber1AlldiffConflicts=40
%%%mzn-stat: circuitNumber1TotalFixedEdgesAtConflict=1852664
%%%mzn-stat: circuitNumber1NumberOfConflicts=39913
%%%mzn-stat: circuitNumber1GacPrunings=219710
%%%mzn-stat: circuitNumber1PropagationsThatGacPruned=98484
%%%mzn-stat: circuitNumber1TotalPruningHallSetSize=390424
%%%mzn-stat: circuitNumber1NumberOfPruningExplanations=219710
%%%mzn-stat: circuitNumber1MaxPruningHallSetSize=29
%%%mzn-stat: circuitNumber1TotalSccSizeAtPruning=245671
%%%mzn-stat: circuitNumber1NumberOfSccPruningCalls=98484
%%%mzn-stat: circuitNumber1TotalVarsInvolvedInPruning=195001
%%%mzn-stat: circuitNumber1MaxValuesPrunedFromSingleVar=6
%%%mzn-stat: circuitNumber1HallCircuitChecks=338534
%%%mzn-stat: circuitNumber1HallCircuitPrunings=16832
%%%mzn-stat: circuitNumber1CircuitPreventPrunings=81717
%%%mzn-stat: AverageConflictSize=39.61675821070952
%%%mzn-stat: NumUnitNogoodsLearned=0
%%%mzn-stat: AverageLearnedNogoodLength=34.74281774824258
%%%mzn-stat: AverageBacktrackAmount=0
%%%mzn-stat: AverageLbd=30.112361836305688
%%%mzn-stat: 2AutonomousSearchNumBackupCalled=1981
%%%mzn-stat: 2AutonomousSearchNumPredicatesRemoved=0
%%%mzn-stat: 2AutonomousSearchNumCalls=1986
%%%mzn-stat: 2AutonomousSearchNumPredicatesAdded=2626
%%%mzn-stat: 2AutonomousSearchAverageSizeOfHeap=3.7452165156092647
%%%mzn-stat: 2AutonomousSearchNumAssignedPredicatesEncountered=7438
%%%mzn-stat-end
maxleg = 364;
succ = array1d(1..50,[2, 6, 5, 9, 18, 13, 11, 3, 8, 20, 16, 4, 15, 7, 23, 21, 1, 34, 12, 29, 41, 24, 26, 19, 27, 28, 17, 45, 39, 31, 32, 25, 47, 42, 43, 22, 36, 40, 46, 37, 44, 35, 48, 10, 50, 49, 30, 14, 33, 38]);
% time elapsed: 22.37 s
----------
%%%mzn-stat: initTime=0.00904119
%%%mzn-stat: objective=359
%%%mzn-stat: nodes=47271
%%%mzn-stat: restarts=0
%%%mzn-stat: peakDepth=457
%%%mzn-stat: solveTime=22.124779653
%%%mzn-stat: variables=886
%%%mzn-stat: propagators=622
%%%mzn-stat: failures=44242
%%%mzn-stat: propagations=1050774
%%%mzn-stat: nogoods=44242
%%%mzn-stat: numAtomicConstraintsPropagated=0
%%%mzn-stat: circuitNumber1PropagationsTotal=198438
%%%mzn-stat: circuitNumber1CircuitConflicts=39873
%%%mzn-stat: circuitNumber1AlldiffConflicts=40
%%%mzn-stat: circuitNumber1TotalFixedEdgesAtConflict=1852664
%%%mzn-stat: circuitNumber1NumberOfConflicts=39913
%%%mzn-stat: circuitNumber1GacPrunings=219948
%%%mzn-stat: circuitNumber1PropagationsThatGacPruned=98525
%%%mzn-stat: circuitNumber1TotalPruningHallSetSize=391317
%%%mzn-stat: circuitNumber1NumberOfPruningExplanations=219948
%%%mzn-stat: circuitNumber1MaxPruningHallSetSize=29
%%%mzn-stat: circuitNumber1TotalSccSizeAtPruning=245915
%%%mzn-stat: circuitNumber1NumberOfSccPruningCalls=98525
%%%mzn-stat: circuitNumber1TotalVarsInvolvedInPruning=195193
%%%mzn-stat: circuitNumber1MaxValuesPrunedFromSingleVar=7
%%%mzn-stat: circuitNumber1HallCircuitChecks=338666
%%%mzn-stat: circuitNumber1HallCircuitPrunings=16837
%%%mzn-stat: circuitNumber1CircuitPreventPrunings=81750
%%%mzn-stat: AverageConflictSize=39.616088784413
%%%mzn-stat: NumUnitNogoodsLearned=0
%%%mzn-stat: AverageLearnedNogoodLength=34.742733149495955
%%%mzn-stat: AverageBacktrackAmount=0
%%%mzn-stat: AverageLbd=30.111997649292526
%%%mzn-stat: 2AutonomousSearchNumBackupCalled=2357
%%%mzn-stat: 2AutonomousSearchNumPredicatesRemoved=0
%%%mzn-stat: 2AutonomousSearchNumCalls=2363
%%%mzn-stat: 2AutonomousSearchNumPredicatesAdded=2788
%%%mzn-stat: 2AutonomousSearchAverageSizeOfHeap=3.8205670757511636
%%%mzn-stat: 2AutonomousSearchNumAssignedPredicatesEncountered=9028
%%%mzn-stat-end
maxleg = 359;
succ = array1d(1..50,[2, 6, 5, 9, 18, 13, 11, 3, 8, 20, 16, 4, 15, 7, 23, 21, 1, 34, 12, 29, 41, 24, 26, 35, 27, 28, 17, 45, 39, 31, 32, 25, 47, 38, 42, 22, 36, 50, 46, 37, 44, 43, 48, 10, 19, 49, 30, 14, 33, 40]);
% time elapsed: 22.37 s
----------
%%%mzn-stat: initTime=0.00904119
%%%mzn-stat: objective=352
%%%mzn-stat: nodes=47672
%%%mzn-stat: restarts=0
%%%mzn-stat: peakDepth=457
%%%mzn-stat: solveTime=22.130359575
%%%mzn-stat: variables=886
%%%mzn-stat: propagators=622
%%%mzn-stat: failures=44242
%%%mzn-stat: propagations=1051863
%%%mzn-stat: nogoods=44242
%%%mzn-stat: numAtomicConstraintsPropagated=0
%%%mzn-stat: circuitNumber1PropagationsTotal=198515
%%%mzn-stat: circuitNumber1CircuitConflicts=39873
%%%mzn-stat: circuitNumber1AlldiffConflicts=40
%%%mzn-stat: circuitNumber1TotalFixedEdgesAtConflict=1852664
%%%mzn-stat: circuitNumber1NumberOfConflicts=39913
%%%mzn-stat: circuitNumber1GacPrunings=220136
%%%mzn-stat: circuitNumber1PropagationsThatGacPruned=98563
%%%mzn-stat: circuitNumber1TotalPruningHallSetSize=391862
%%%mzn-stat: circuitNumber1NumberOfPruningExplanations=220136
%%%mzn-stat: circuitNumber1MaxPruningHallSetSize=29
%%%mzn-stat: circuitNumber1TotalSccSizeAtPruning=246113
%%%mzn-stat: circuitNumber1NumberOfSccPruningCalls=98563
%%%mzn-stat: circuitNumber1TotalVarsInvolvedInPruning=195364
%%%mzn-stat: circuitNumber1MaxValuesPrunedFromSingleVar=7
%%%mzn-stat: circuitNumber1HallCircuitChecks=338788
%%%mzn-stat: circuitNumber1HallCircuitPrunings=16842
%%%mzn-stat: circuitNumber1CircuitPreventPrunings=81776
%%%mzn-stat: AverageConflictSize=39.616088784413
%%%mzn-stat: NumUnitNogoodsLearned=0
%%%mzn-stat: AverageLearnedNogoodLength=34.742733149495955
%%%mzn-stat: AverageBacktrackAmount=0
%%%mzn-stat: AverageLbd=30.111997649292526
%%%mzn-stat: 2AutonomousSearchNumBackupCalled=2725
%%%mzn-stat: 2AutonomousSearchNumPredicatesRemoved=0
%%%mzn-stat: 2AutonomousSearchNumCalls=2732
%%%mzn-stat: 2AutonomousSearchNumPredicatesAdded=2788
%%%mzn-stat: 2AutonomousSearchAverageSizeOfHeap=3.8865300146412882
%%%mzn-stat: 2AutonomousSearchNumAssignedPredicatesEncountered=10618
%%%mzn-stat-end
maxleg = 352;
succ = array1d(1..50,[2, 6, 5, 9, 18, 13, 11, 3, 8, 20, 16, 4, 15, 7, 23, 21, 1, 34, 12, 29, 41, 24, 26, 35, 27, 28, 17, 45, 39, 31, 47, 25, 32, 38, 42, 22, 36, 50, 46, 37, 44, 43, 48, 10, 19, 49, 33, 14, 30, 40]);
% time elapsed: 22.38 s
----------
%%%mzn-stat: initTime=0.00904119
%%%mzn-stat: objective=352
%%%mzn-stat: nodes=2576759
%%%mzn-stat: restarts=0
%%%mzn-stat: peakDepth=457
%%%mzn-stat: solveTime=1799.778591763
%%%mzn-stat: variables=886
%%%mzn-stat: propagators=622
%%%mzn-stat: failures=2568840
%%%mzn-stat: propagations=84034531
%%%mzn-stat: nogoods=2568840
%%%mzn-stat: numAtomicConstraintsPropagated=0
%%%mzn-stat: circuitNumber1PropagationsTotal=12068585
%%%mzn-stat: circuitNumber1CircuitConflicts=2076413
%%%mzn-stat: circuitNumber1AlldiffConflicts=32459
%%%mzn-stat: circuitNumber1TotalFixedEdgesAtConflict=95432943
%%%mzn-stat: circuitNumber1NumberOfConflicts=2108872
%%%mzn-stat: circuitNumber1GacPrunings=16763505
%%%mzn-stat: circuitNumber1PropagationsThatGacPruned=6513932
%%%mzn-stat: circuitNumber1TotalPruningHallSetSize=38448276
%%%mzn-stat: circuitNumber1NumberOfPruningExplanations=16763505
%%%mzn-stat: circuitNumber1MaxPruningHallSetSize=29
%%%mzn-stat: circuitNumber1TotalSccSizeAtPruning=19682923
%%%mzn-stat: circuitNumber1NumberOfSccPruningCalls=6513932
%%%mzn-stat: circuitNumber1TotalVarsInvolvedInPruning=14439113
%%%mzn-stat: circuitNumber1MaxValuesPrunedFromSingleVar=8
%%%mzn-stat: circuitNumber1HallCircuitChecks=22121360
%%%mzn-stat: circuitNumber1HallCircuitPrunings=909497
%%%mzn-stat: circuitNumber1CircuitPreventPrunings=5446187
%%%mzn-stat: AverageConflictSize=28.06909461079709
%%%mzn-stat: NumUnitNogoodsLearned=0
%%%mzn-stat: AverageLearnedNogoodLength=47.02254285981221
%%%mzn-stat: AverageBacktrackAmount=0
%%%mzn-stat: AverageLbd=27.065992043101165
%%%mzn-stat: 2AutonomousSearchNumBackupCalled=2725
%%%mzn-stat: 2AutonomousSearchNumPredicatesRemoved=0
%%%mzn-stat: 2AutonomousSearchNumCalls=2732
%%%mzn-stat: 2AutonomousSearchNumPredicatesAdded=5056
%%%mzn-stat: 2AutonomousSearchAverageSizeOfHeap=3.8865300146412882
%%%mzn-stat: 2AutonomousSearchNumAssignedPredicatesEncountered=10618
%%%mzn-stat-end
